7
	1 2	3 1	1 1	1 5	1 3	2 1	1 4
0	1	 1	 0	 0	 0	 0	 0	 
1	1	 1	 0	 0	 0	 0	 0	 
2	0	 0	 0	 0	 0	 0	 0	 
3	1	 1	 0	 0	 0	 0	 0	 
4	0	 0	 0	 0	 0	 0	 1	 
5	1	 1	 0	 0	 0	 0	 0	 
6	0	 0	 0	 0	 0	 1	 0	 
7	1	 1	 0	 0	 0	 0	 0	 
8	0	 0	 0	 0	 0	 1	 1	 
9	1	 1	 0	 0	 0	 0	 0	 
10	0	 0	 0	 0	 1	 0	 0	 
11	1	 1	 0	 0	 0	 0	 0	 
12	0	 0	 0	 0	 1	 0	 1	 
13	0	 1	 1	 0	 0	 0	 0	 
14	0	 1	 1	 0	 0	 0	 0	 
15	0	 0	 0	 0	 1	 1	 0	 
16	0	 1	 1	 0	 0	 0	 0	 
17	0	 0	 0	 0	 1	 1	 1	 
18	0	 1	 1	 0	 0	 0	 0	 
19	0	 0	 0	 1	 0	 0	 0	 
20	0	 1	 1	 0	 0	 0	 0	 
21	0	 0	 0	 1	 0	 0	 1	 
22	0	 1	 1	 0	 0	 0	 0	 
23	0	 0	 0	 1	 0	 1	 0	 
24	0	 1	 1	 0	 0	 0	 0	 
25	0	 0	 0	 1	 0	 1	 1	 
26	0	 1	 1	 0	 0	 0	 0	 
27	0	 0	 0	 1	 1	 0	 0	 
28	0	 1	 1	 0	 0	 0	 0	 
29	0	 0	 0	 1	 1	 0	 1	 
30	0	 1	 1	 0	 0	 0	 0	 
31	0	 0	 0	 1	 1	 1	 0	 
32	0	 1	 1	 0	 0	 0	 0	 
33	0	 0	 0	 1	 1	 1	 1	 
34	0	 1	 1	 0	 0	 0	 0	 
35	0	 0	 1	 0	 0	 0	 0	 
36	0	 1	 1	 0	 0	 0	 0	 
37	0	 0	 1	 0	 0	 0	 1	 
38	0	 1	 1	 0	 0	 0	 0	 
39	0	 0	 1	 0	 0	 1	 0	 
40	0	 0	 0	 0	 0	 1	 0	 
41	0	 0	 1	 0	 0	 1	 1	 
42	0	 0	 0	 0	 0	 1	 0	 
43	0	 0	 1	 0	 1	 0	 0	 
44	0	 0	 0	 0	 0	 1	 0	 
45	0	 0	 1	 0	 1	 0	 1	 
46	0	 0	 0	 0	 0	 1	 0	 
47	0	 0	 1	 0	 1	 1	 0	 
48	0	 0	 0	 0	 0	 1	 0	 
49	0	 0	 1	 0	 1	 1	 1	 
50	0	 1	 1	 0	 0	 1	 0	 
51	0	 1	 1	 0	 0	 1	 0	 
52	0	 0	 1	 1	 0	 0	 0	 
53	0	 1	 1	 0	 0	 1	 0	 
54	0	 0	 1	 1	 0	 0	 1	 
55	0	 1	 1	 0	 0	 1	 0	 
56	0	 0	 1	 1	 0	 1	 0	 
57	0	 1	 1	 0	 0	 1	 0	 
58	0	 0	 1	 1	 0	 1	 1	 
59	0	 1	 1	 0	 0	 1	 0	 
60	0	 0	 1	 1	 1	 0	 0	 
61	0	 1	 1	 0	 0	 1	 0	 
62	0	 0	 1	 1	 1	 0	 1	 
63	0	 1	 1	 0	 0	 1	 0	 
64	0	 0	 1	 1	 1	 1	 0	 
65	0	 1	 1	 0	 0	 1	 0	 
66	0	 0	 1	 1	 1	 1	 1	 
67	0	 1	 1	 0	 0	 1	 0	 
68	0	 1	 0	 0	 0	 0	 0	 
69	0	 1	 1	 0	 0	 1	 0	 
70	0	 1	 0	 0	 0	 0	 1	 
71	0	 1	 1	 0	 0	 1	 0	 
72	0	 1	 0	 0	 0	 1	 0	 
73	0	 1	 1	 0	 0	 1	 0	 
74	0	 1	 0	 0	 0	 1	 1	 
75	0	 1	 1	 0	 0	 1	 0	 
76	0	 1	 0	 0	 1	 0	 0	 
77	0	 1	 1	 0	 0	 1	 0	 
78	0	 1	 0	 0	 1	 0	 1	 
79	0	 1	 1	 0	 0	 1	 0	 
80	0	 1	 0	 0	 1	 1	 0	 
81	0	 1	 1	 0	 0	 1	 0	 
82	0	 1	 0	 0	 1	 1	 1	 
83	0	 1	 1	 0	 0	 1	 0	 
84	0	 1	 0	 1	 0	 0	 0	 
85	0	 1	 1	 0	 0	 1	 0	 
86	0	 1	 0	 1	 0	 0	 1	 
87	0	 1	 1	 0	 0	 1	 0	 
88	0	 1	 0	 1	 0	 1	 0	 
89	0	 1	 1	 0	 0	 1	 0	 
90	0	 1	 0	 1	 0	 1	 1	 
91	0	 1	 1	 0	 0	 1	 0	 
92	0	 1	 0	 1	 1	 0	 0	 
93	0	 1	 1	 0	 0	 1	 0	 
94	0	 1	 0	 1	 1	 0	 1	 
95	0	 1	 1	 0	 0	 1	 0	 
96	0	 1	 0	 1	 1	 1	 0	 
97	0	 1	 1	 0	 0	 1	 0	 
98	0	 1	 0	 1	 1	 1	 1	 
99	0	 1	 1	 0	 0	 1	 0	 
100	0	 1	 1	 0	 0	 0	 1	 
101	0	 1	 1	 0	 0	 1	 0	 
102	0	 1	 1	 0	 0	 1	 1	 
103	0	 1	 1	 0	 0	 1	 0	 
104	0	 1	 1	 0	 1	 0	 0	 
105	0	 1	 1	 0	 0	 1	 0	 
106	0	 1	 1	 0	 1	 0	 1	 
107	0	 1	 1	 0	 0	 1	 0	 
108	0	 1	 1	 0	 1	 1	 0	 
109	0	 1	 1	 0	 0	 1	 0	 
110	0	 1	 1	 0	 1	 1	 1	 
111	0	 1	 1	 0	 0	 1	 0	 
112	0	 1	 1	 1	 0	 0	 0	 
113	0	 1	 1	 0	 0	 1	 0	 
114	0	 1	 1	 1	 0	 0	 1	 
115	0	 1	 1	 0	 0	 1	 0	 
116	0	 1	 1	 1	 0	 1	 0	 
117	0	 1	 1	 0	 0	 1	 0	 
118	0	 1	 1	 1	 0	 1	 1	 
119	0	 0	 0	 0	 0	 0	 0	 
120	0	 1	 1	 1	 1	 0	 0	 
121	0	 0	 0	 0	 0	 0	 0	 
122	0	 1	 1	 1	 1	 0	 1	 
123	0	 0	 0	 0	 0	 0	 0	 
124	0	 1	 1	 1	 1	 1	 0	 
125	0	 0	 0	 0	 0	 0	 0	 
126	0	 1	 1	 1	 1	 1	 1	 
127	0	 0	 0	 0	 0	 0	 0	 
128	1	 0	 0	 0	 0	 0	 0	 
129	0	 0	 0	 0	 0	 0	 0	 
130	1	 0	 0	 0	 0	 0	 1	 
131	0	 0	 0	 0	 0	 0	 0	 
132	1	 0	 0	 0	 0	 1	 0	 
133	0	 0	 0	 0	 0	 0	 0	 
134	1	 0	 0	 0	 0	 1	 1	 
135	0	 0	 0	 0	 0	 0	 0	 
136	1	 0	 0	 0	 1	 0	 0	 
137	0	 0	 0	 0	 0	 0	 0	 
138	1	 0	 0	 0	 1	 0	 1	 
139	0	 0	 0	 0	 0	 0	 0	 
140	1	 0	 0	 0	 1	 1	 0	 
141	0	 0	 0	 0	 0	 0	 0	 
142	1	 0	 0	 0	 1	 1	 1	 
143	0	 0	 0	 0	 0	 0	 0	 
144	1	 0	 0	 1	 0	 0	 0	 
145	0	 0	 0	 0	 0	 0	 0	 
146	1	 0	 0	 1	 0	 0	 1	 
147	0	 0	 0	 0	 0	 0	 0	 
148	1	 0	 0	 1	 0	 1	 0	 
149	0	 0	 0	 0	 0	 0	 0	 
150	1	 0	 0	 1	 0	 1	 1	 
151	0	 0	 0	 0	 0	 0	 0	 
152	1	 0	 0	 1	 1	 0	 0	 
153	0	 0	 0	 0	 0	 0	 0	 
154	1	 0	 0	 1	 1	 0	 1	 
155	0	 0	 0	 0	 0	 0	 0	 
156	1	 0	 0	 1	 1	 1	 0	 
157	0	 0	 0	 0	 0	 0	 0	 
158	1	 0	 0	 1	 1	 1	 1	 
159	0	 0	 0	 0	 0	 0	 0	 
160	1	 0	 1	 0	 0	 0	 0	 
161	0	 0	 0	 0	 0	 0	 0	 
162	1	 0	 1	 0	 0	 0	 1	 
163	0	 0	 0	 0	 0	 0	 0	 
164	1	 0	 1	 0	 0	 1	 0	 
165	0	 0	 0	 0	 0	 0	 0	 
166	1	 0	 1	 0	 0	 1	 1	 
167	0	 0	 0	 0	 0	 0	 0	 
168	1	 0	 1	 0	 1	 0	 0	 
169	0	 0	 0	 0	 0	 0	 0	 
170	1	 0	 1	 0	 1	 0	 1	 
171	0	 0	 0	 0	 0	 0	 0	 
172	1	 0	 1	 0	 1	 1	 0	 
173	0	 0	 0	 0	 0	 0	 0	 
174	1	 0	 1	 0	 1	 1	 1	 
175	0	 0	 0	 0	 0	 0	 0	 
176	1	 0	 1	 1	 0	 0	 0	 
177	0	 0	 0	 0	 0	 0	 0	 
